c generated by sgen
p cnf 101 212
-2 -3 -4 0
-1 -3 -4 0
-1 -2 -4 0
-1 -2 -3 0
-6 -7 -8 0
-5 -7 -8 0
-5 -6 -8 0
-5 -6 -7 0
-10 -11 -12 0
-9 -11 -12 0
-9 -10 -12 0
-9 -10 -11 0
-14 -15 -16 0
-13 -15 -16 0
-13 -14 -16 0
-13 -14 -15 0
-18 -19 -20 0
-17 -19 -20 0
-17 -18 -20 0
-17 -18 -19 0
-22 -23 -24 0
-21 -23 -24 0
-21 -22 -24 0
-21 -22 -23 0
-26 -27 -28 0
-25 -27 -28 0
-25 -26 -28 0
-25 -26 -27 0
-30 -31 -32 0
-29 -31 -32 0
-29 -30 -32 0
-29 -30 -31 0
-34 -35 -36 0
-33 -35 -36 0
-33 -34 -36 0
-33 -34 -35 0
-38 -39 -40 0
-37 -39 -40 0
-37 -38 -40 0
-37 -38 -39 0
-42 -43 -44 0
-41 -43 -44 0
-41 -42 -44 0
-41 -42 -43 0
-46 -47 -48 0
-45 -47 -48 0
-45 -46 -48 0
-45 -46 -47 0
-50 -51 -52 0
-49 -51 -52 0
-49 -50 -52 0
-49 -50 -51 0
-54 -55 -56 0
-53 -55 -56 0
-53 -54 -56 0
-53 -54 -55 0
-58 -59 -60 0
-57 -59 -60 0
-57 -58 -60 0
-57 -58 -59 0
-62 -63 -64 0
-61 -63 -64 0
-61 -62 -64 0
-61 -62 -63 0
-66 -67 -68 0
-65 -67 -68 0
-65 -66 -68 0
-65 -66 -67 0
-70 -71 -72 0
-69 -71 -72 0
-69 -70 -72 0
-69 -70 -71 0
-74 -75 -76 0
-73 -75 -76 0
-73 -74 -76 0
-73 -74 -75 0
-78 -79 -80 0
-77 -79 -80 0
-77 -78 -80 0
-77 -78 -79 0
-82 -83 -84 0
-81 -83 -84 0
-81 -82 -84 0
-81 -82 -83 0
-86 -87 -88 0
-85 -87 -88 0
-85 -86 -88 0
-85 -86 -87 0
-90 -91 -92 0
-89 -91 -92 0
-89 -90 -92 0
-89 -90 -91 0
-94 -95 -96 0
-93 -95 -96 0
-93 -94 -96 0
-93 -94 -95 0
-97 -98 -99 0
-97 -98 -100 0
-97 -98 -101 0
-97 -99 -100 0
-97 -99 -101 0
-97 -100 -101 0
-98 -99 -100 0
-98 -99 -101 0
-98 -100 -101 0
-99 -100 -101 0
62 6 10 0
73 6 10 0
73 62 10 0
73 62 6 0
37 61 43 0
72 61 43 0
72 37 43 0
72 37 61 0
89 25 77 0
38 25 77 0
38 89 77 0
38 89 25 0
19 58 83 0
90 58 83 0
90 19 83 0
90 19 58 0
28 50 53 0
100 50 53 0
100 28 53 0
100 28 50 0
13 31 66 0
97 31 66 0
97 13 66 0
97 13 31 0
68 91 4 0
7 91 4 0
7 68 4 0
7 68 91 0
99 84 34 0
1 84 34 0
1 99 34 0
1 99 84 0
29 63 18 0
80 63 18 0
80 29 18 0
80 29 63 0
36 46 44 0
15 46 44 0
15 36 44 0
15 36 46 0
23 64 55 0
3 64 55 0
3 23 55 0
3 23 64 0
22 51 87 0
30 51 87 0
30 22 87 0
30 22 51 0
82 96 48 0
98 96 48 0
98 82 48 0
98 82 96 0
33 86 92 0
95 86 92 0
95 33 92 0
95 33 86 0
26 75 47 0
65 75 47 0
65 26 47 0
65 26 75 0
54 88 8 0
11 88 8 0
11 54 8 0
11 54 88 0
101 56 74 0
40 56 74 0
40 101 74 0
40 101 56 0
93 16 69 0
57 16 69 0
57 93 69 0
57 93 16 0
41 49 79 0
94 49 79 0
94 41 79 0
94 41 49 0
42 60 5 0
21 60 5 0
21 42 5 0
21 42 60 0
76 85 14 0
2 85 14 0
2 76 14 0
2 76 85 0
39 32 45 0
59 32 45 0
59 39 45 0
59 39 32 0
52 9 17 0
35 9 17 0
35 52 17 0
35 52 9 0
24 20 71 0
27 20 71 0
27 24 71 0
27 24 20 0
78 67 81 0
78 67 70 0
78 67 12 0
78 81 70 0
78 81 12 0
78 70 12 0
67 81 70 0
67 81 12 0
67 70 12 0
81 70 12 0
